
  32    4
  10   10   10   10

   0   0   0   0   0   4 2 3 19 31 
   5  10  10  10  10   5 30 29 28 27 4 
   8  10  10  10  10   4 28 27 17 5 
   6  10  10  10  10   2 17 5 
   6  10  10  10  10   1 6 
   7  10  10  10  10   2 13 7 
   8  10  10  10  10   2 26 8 
  10  10  10  10  10   2 25 9 
   6  10  10  10  10   1 10 
   2  10  10  10  10   3 24 15 11 
   9  10  10  10  10   2 23 12 
   7  10  10  10  10   2 22 14 
   1  10  10  10  10   1 14 
  10  10  10  10  10   1 16 
   2  10  10  10  10   1 16 
  10  10  10  10  10   1 18 
   6  10  10  10  10   1 18 
   6  10  10  10  10   1 20 
   8  10  10  10  10   1 20 
   6  10  10  10  10   1 21 
   5  10  10  10  10   1 32
   4  10  10  10  10   1 32
   7  10  10  10  10   1 32
   2  10  10  10  10   1 32
   6  10  10  10  10   1 32
  10  10  10  10  10   1 32
   2  10  10  10  10   1 32
   4  10  10  10  10   1 32
   5  10  10  10  10   1 32
   9  10  10  10  10   1 32
  10  10  10  10  10   1 32
   0   0   0   0   0   0 
